CPXPARAM_MIP_Cuts_Disjunctive#P15#0#CPXPARAM_MIP_Cuts_PathCut#P21#0#1.443803#0.258805
CPXPARAM_MIP_Cuts_Disjunctive#P15#0#CPXPARAM_MIP_Cuts_PathCut#P21#1#3.965627#0.710847
CPXPARAM_MIP_Cuts_Disjunctive#P15#1#CPXPARAM_MIP_Cuts_PathCut#P21#0#5.578702#0.999995
CPXPARAM_MIP_Cuts_Disjunctive#P15#1#CPXPARAM_MIP_Cuts_PathCut#P21#1#5.578178#0.999901
CPXPARAM_MIP_Cuts_Disjunctive#P15#2#CPXPARAM_MIP_Cuts_PathCut#P21#1#5.578732#1.000000
CPXPARAM_MIP_Cuts_Disjunctive#P15#3#CPXPARAM_MIP_Cuts_PathCut#P21#1#4.325724#0.775396
